NVc                                     
   1.00000000000000     
    10.4777045999999991    0.0000000000000000    0.0000000000000000
     0.0000000000000000   10.4777045999999991    0.0000000000000000
     0.0000000000000000    0.0000000000000000   10.4777045999999991
   C    N 
   214     1
Direct
  0.0108077106888445  0.0115721911075823  0.0115693278850415
  0.1788693298339439  0.1772611531728074  0.0097836314262949
  0.1771284905283537  0.0097044156026342  0.1767944478984447
  0.0114194859053356  0.1796796218133494  0.1773222352537047
  0.0958062894806204  0.0953605811715690  0.0935510245249702
  0.2606610993785807  0.2638745894783128  0.0943861310997463
  0.2601867588441067  0.0931520821841048  0.2582808070385951
  0.0959065022695924  0.2609960964160010  0.2612356527020268
  0.3428098173334675  0.0107704887957993  0.0095507559928762
  0.5129539536741632  0.1773976334473133  0.0122355043298299
  0.5097958192102467  0.0115884160353232  0.1797435671167875
  0.3433461943563501  0.1767429098926883  0.1767066424071544
  0.4271727607208931  0.0918970363031590  0.0938745686722271
  0.5956638632472959  0.2608414823987317  0.0953128607958647
  0.5940680938838483  0.0938936568225088  0.2585241809546730
  0.4282149737262131  0.2591216400584528  0.2613129597106578
  0.6773210613324636  0.0114700695035808  0.0113813096047792
  0.8442278473855822  0.1749419429137191  0.0124779238383965
  0.8463857627747942  0.0096452423367595  0.1743950674081773
  0.6775854322138457  0.1761740830143239  0.1775827885050347
  0.7619082904856853  0.0941484836287501  0.0934708542937912
  0.9286022436631782  0.2610018228610897  0.0939929152039625
  0.9257208873783327  0.0942124289321953  0.2597028742344989
  0.7591595968452864  0.2601333120233207  0.2586520715615492
  0.0110253156020477  0.3462361403088252  0.0121849207315918
  0.1790105821460202  0.5114059046864128  0.0142158999214388
  0.1791270198627259  0.3456892648032834  0.1797750625647510
  0.0087690962388862  0.5120749443537491  0.1788063389380170
  0.0949597300156739  0.4280460435962254  0.0960277120238686
  0.2626748992331756  0.5961133891864066  0.0964591042202159
  0.2614112636846073  0.4270210099261647  0.2631683279179313
  0.0918283189621505  0.5951809330451994  0.2632141394786061
  0.3439551063503004  0.3442328389368825  0.0095039900246832
  0.5113123727500408  0.5149515286010242  0.0110673095326632
  0.5086791624188365  0.3434139572898474  0.1768841622047646
  0.3446289180552000  0.5104591324325014  0.1782317856145710
  0.4273779583364075  0.4273531437410441  0.0927645927334098
  0.5936452913551307  0.5993660099942133  0.0934756263313616
  0.5940041485804031  0.4292171016159401  0.2610495432367870
  0.4253088028459970  0.5951322582619838  0.2608939748119994
  0.6780626359708606  0.3429749298333888  0.0123109025234385
  0.8451164007811371  0.5118516129954642  0.0095049444322015
  0.8435005888598894  0.3452540549768912  0.1766283809910050
  0.6779204292512730  0.5132517288185454  0.1782890500654091
  0.7604480469892252  0.4296055454741463  0.0967788307374136
  0.9262429482885040  0.5945567505310265  0.0907851515493192
  0.9278921644727447  0.4280126393332395  0.2603747771243690
  0.7628016159188178  0.5949232430164173  0.2627770208371771
  0.0115826895902345  0.6755592250615621  0.0116829023792135
  0.1760576452976181  0.8439071664608662  0.0120493948645972
  0.1753036633615324  0.6780807697136240  0.1806120779545566
  0.0093589200825548  0.8466835379191764  0.1777125879269406
  0.0917557839910828  0.7620943999509180  0.0962825388301169
  0.2596809228616763  0.9245221515407138  0.0950341738017713
  0.2580336154924652  0.7599221684489947  0.2613568624563030
  0.0935529333399998  0.9284132709753976  0.2602898348556195
  0.3447844864799876  0.6773267877775453  0.0110300876396181
  0.5067569856855840  0.8485923529472288  0.0123710301968245
  0.5109993270854361  0.6809229952904019  0.1773861805571428
  0.3432268934170963  0.8425795856088527  0.1767410010776587
  0.4253297998113084  0.7638027894010264  0.0919743433117972
  0.5930163368033874  0.9296520919286095  0.0958807332667106
  0.5925868534220768  0.7611819863675109  0.2595186735842887
  0.4248831370947386  0.9267344681582230  0.2614246253898003
  0.6772685689191889  0.6795391043950616  0.0130066656011678
  0.8459391000582315  0.8443605100300289  0.0109184219604757
  0.8443862790329106  0.6779299733264068  0.1758438580144741
  0.6746573099608071  0.8456690027317606  0.1791604241257190
  0.7617660837660978  0.7634038470601681  0.0964514689600975
  0.9251654222051684  0.9280219638946505  0.0936760519093056
  0.9284753074638132  0.7638037438085448  0.2604091357948732
  0.7601369101396500  0.9286862315244093  0.2640502004608933
  0.0084655946494223  0.0104641239837946  0.3424786379260993
  0.1761005936357449  0.1756711102544344  0.3432497991974301
  0.1780876700799539  0.0120703918299085  0.5089912536759229
  0.0123233098211202  0.1778519314239873  0.5117590354666035
  0.0935367084122589  0.0937018209121874  0.4287007671508505
  0.2607231358669893  0.2614780722105863  0.4253822922245760
  0.2612910083378353  0.0929659727188721  0.5922986223528355
  0.0961556026307520  0.2596303392634312  0.5967776568161725
  0.3439388814225595  0.0115893704428345  0.3427325103248293
  0.5113534122731451  0.1763296514391115  0.3431066380703243
  0.5074298429829724  0.0080933757189499  0.5117828956544557
  0.3425158598191445  0.1770473658896634  0.5061595265818042
  0.4269427485100152  0.0924563191063825  0.4267919521227981
  0.5970544349952362  0.2593516522693307  0.4248373255340709
  0.5914845127433708  0.0941398939611275  0.5941244039271751
  0.4245223710544366  0.2599204791476950  0.5936968293608871
  0.6782630615488046  0.0136871581586675  0.3448178907429806
  0.8443251969520134  0.1779979557736340  0.3415013246317358
  0.8445876590183730  0.0132376322195640  0.5103092904527955
  0.6757682403071357  0.1780361320741974  0.5095944392247915
  0.7605864360787606  0.0958081982956429  0.4286893142606800
  0.9298229308736197  0.2594356401305689  0.4292934542170599
  0.9278329912068699  0.0950484899144826  0.5955397902704789
  0.7602628919315038  0.2597763636130779  0.5939907868752101
  0.0133397538235585  0.3444141763645447  0.3421760907441538
  0.1787032629264971  0.5095858495571619  0.3480848276634916
  0.1817306435609964  0.3452826872023067  0.5105192601058803
  0.0088893515856512  0.5103417403082702  0.5129988108273267
  0.0953348121686872  0.4282550588417990  0.4281624813129383
  0.2585594940326885  0.5969914440993094  0.4287752109369478
  0.2540976389046108  0.4225085711998418  0.5998374873061394
  0.0948919670821766  0.5935460329736699  0.5978093713388333
  0.3451099394422741  0.3442318845293642  0.3434130028823290
  0.5102548892244982  0.5092088585891261  0.3425912580127530
  0.5124013517235468  0.3439971002809159  0.5063389551944439
  0.5917775158501826  0.5928855829739632  0.4269961953308012
  0.5928750844913111  0.4277893079749546  0.5918252362258798
  0.4287322625988139  0.5996475602108475  0.5977664230006994
  0.6787660343087012  0.3460777086614968  0.3413982486202158
  0.8438823518655028  0.5079118187775578  0.3463039032423154
  0.8453177807665995  0.3440037811335159  0.5114488530245467
  0.6764210550467311  0.5096249802652366  0.5102749317822912
  0.7596444358624126  0.4262822985103085  0.4266659703309443
  0.9249984008902103  0.5931299112975594  0.4286310954023236
  0.9265101823924269  0.4261353197531434  0.5944985316726701
  0.7588770922211339  0.5930401969912396  0.5932138991587905
  0.0093827802704070  0.6760478817087474  0.3465749549763046
  0.1751862712373082  0.8418036522999515  0.3454067601791309
  0.1789781322905384  0.6764811827201171  0.5097166033865861
  0.0113603126394679  0.8467007172544285  0.5084424693553586
  0.0939222890479243  0.7596415726398718  0.4260790097098166
  0.2585642660702590  0.9279227055131898  0.4230668995955469
  0.2606458288583582  0.7610903632461614  0.5930631027715734
  0.0952727756802787  0.9298467910614718  0.5920371146939942
  0.3439255197173594  0.6752576322871349  0.3458553317107231
  0.5072733201506736  0.8412481871267872  0.3436487415382956
  0.5064086269429637  0.6750667507843247  0.5077638856128885
  0.3407740661060430  0.8456432337288859  0.5092432172596304
  0.4281987487984722  0.7610569589831755  0.4267404141170417
  0.5934811332627206  0.9278062677964769  0.4288639708357493
  0.5920418867315647  0.7615083937373086  0.5948020332621340
  0.4250959699703714  0.9266657508172145  0.5915236434514455
  0.6768324046852783  0.6775882954363865  0.3447272220291424
  0.8445991119085363  0.8470996595952869  0.3444218116246560
  0.8427237011434769  0.6779939186298520  0.5120358136456744
  0.6759896628503910  0.8448214888593029  0.5134292486161556
  0.7580353047937649  0.7594220589116460  0.4294213448239432
  0.9269721156292192  0.9266361641842806  0.4274619461976457
  0.9243112274801106  0.7605119922926633  0.5941396744473977
  0.7587644721344802  0.9312698126648868  0.5955541063831831
  0.0142521674069727  0.0108916985500827  0.6796946728198492
  0.1797168437063945  0.1771103567855903  0.6782516086586341
  0.1791107949349922  0.0109995465991659  0.8449302913159045
  0.0080351568606005  0.1739970794748302  0.8419048194964347
  0.0953777605068211  0.0952899550155308  0.7594239677266685
  0.2625412821812105  0.2583075304489881  0.7638820052246942
  0.2632418172965103  0.0938669334121158  0.9280964076807408
  0.0935290731521476  0.2618006619503319  0.9269845229269009
  0.3425988932728643  0.0101682576544491  0.6762320823589576
  0.5107139592387426  0.1772392017999849  0.6758417296857147
  0.5093577461613137  0.0114299843879948  0.8428668622705757
  0.3462829062770112  0.1761922167570944  0.8443423762872655
  0.4292543235089852  0.0957003502465597  0.7599193052264539
  0.5930316073236099  0.2608682058091247  0.7612736094888604
  0.5943677778432530  0.0915944891212135  0.9264939574646931
  0.4296150895492872  0.2602430688874335  0.9285993804406374
  0.6758512737608555  0.0126325378556658  0.6765384471709552
  0.8440226497700678  0.1786450440681477  0.6746945318538593
  0.8414724728925833  0.0097435463107090  0.8416996218809203
  0.6779652864044294  0.1784398464526262  0.8458407960842891
  0.7593418886804670  0.0936760519093056  0.7593151652700740
  0.9252541821039699  0.2574352019811670  0.7596472990849534
  0.9276039334035033  0.0925460334127024  0.9288007604260926
  0.7593428430879783  0.2606267407080765  0.9272240792129196
  0.0091632665421741  0.3416941149495685  0.6780683624159423
  0.1773250984762456  0.5094818191381378  0.6746344041804733
  0.1792902235476248  0.3436344254255843  0.8461385712286642
  0.0137272432742535  0.5094102385745813  0.8438413123423985
  0.0929430669385383  0.4250024380339923  0.7594564175821503
  0.2587952326886551  0.5938037230024591  0.7610865456161093
  0.2596561082663058  0.4259482558803924  0.9258182369447567
  0.0941837967067727  0.5933856925113190  0.9304270708299995
  0.3438921154543735  0.3451156658873558  0.6780569095257789
  0.5084653751356925  0.5099933815656499  0.6753101247004025
  0.5115929685591638  0.3434464071453220  0.8426530749874388
  0.3432316654546668  0.5117351752787513  0.8435759870534980
  0.4273340555907623  0.4285938735092785  0.7585067821056910
  0.5942351151987992  0.5918338258935094  0.7615312995176424
  0.5931127319623073  0.4280135937407508  0.9303325844861092
  0.4289641836247213  0.5979095841278053  0.9273911005278777
  0.6778975234709321  0.3440285957288793  0.6785656087307501
  0.8423581630656045  0.5110709076489925  0.6786066482538544
  0.8451498050441302  0.3422858476082666  0.8441257257815806
  0.6767904107546627  0.5086591198610435  0.8458866076449638
  0.7581641498081524  0.4256562071811061  0.7623969471328707
  0.9295280189517854  0.5942284343461992  0.7617059560927117
  0.9273309728544916  0.4268902560967405  0.9263259817422238
  0.7612535669310603  0.5959635472067006  0.9279112526230193
  0.0074577403146137  0.6774012315636355  0.6758531825758851
  0.1775713356148643  0.8429594397994364  0.6762368543965280
  0.1762151225374282  0.6751431033854516  0.8470099452889741
  0.0122612733327117  0.8440360114752608  0.8462206502748728
  0.0928037234414845  0.7585630921490178  0.7624628012513384
  0.2595272632519183  0.9281737146893789  0.7597083811658507
  0.2598288560263455  0.7605482597781972  0.9273433801521733
  0.0940597237299485  0.9297227180846477  0.9279150702530785
  0.3426781090965321  0.6765193590206806  0.6754800092379014
  0.5122725067091523  0.8436456588020249  0.6758694075036260
  0.5091878616238148  0.6781027210864465  0.8425814944238823
  0.3442337933443937  0.8422484062014917  0.8448615739748959
  0.4282474235816878  0.7615561141130058  0.7598649039981495
  0.5924465555175118  0.9290298182294592  0.7591443263250639
  0.5926803853584488  0.7632473242278692  0.9289152893277759
  0.4258184564584866  0.9270274712650348  0.9274970397619313
  0.6763523377057226  0.6771187269394829  0.6757758755672469
  0.8426807528053430  0.8444702668941417  0.6772752497717889
  0.8448310329344437  0.6786877728925447  0.8440197865475199
  0.6725547502074107  0.8436895615476701  0.8461500241188347
  0.7578577849961547  0.7594392382468982  0.7605959801538944
  0.9278110398340473  0.9267793253113865  0.7612554757460899
  0.9265559939531016  0.7601789040702656  0.9282996964812327
  0.7604843144747591  0.9266018055137764  0.9292025659894989
  0.4351563795757301  0.4219731485844704  0.4207753671543699
 
  0.00000000E+00  0.00000000E+00  0.00000000E+00
  0.00000000E+00  0.00000000E+00  0.00000000E+00
  0.00000000E+00  0.00000000E+00  0.00000000E+00
  0.00000000E+00  0.00000000E+00  0.00000000E+00
  0.00000000E+00  0.00000000E+00  0.00000000E+00
  0.00000000E+00  0.00000000E+00  0.00000000E+00
  0.00000000E+00  0.00000000E+00  0.00000000E+00
  0.00000000E+00  0.00000000E+00  0.00000000E+00
  0.00000000E+00  0.00000000E+00  0.00000000E+00
  0.00000000E+00  0.00000000E+00  0.00000000E+00
  0.00000000E+00  0.00000000E+00  0.00000000E+00
  0.00000000E+00  0.00000000E+00  0.00000000E+00
  0.00000000E+00  0.00000000E+00  0.00000000E+00
  0.00000000E+00  0.00000000E+00  0.00000000E+00
  0.00000000E+00  0.00000000E+00  0.00000000E+00
  0.00000000E+00  0.00000000E+00  0.00000000E+00
  0.00000000E+00  0.00000000E+00  0.00000000E+00
  0.00000000E+00  0.00000000E+00  0.00000000E+00
  0.00000000E+00  0.00000000E+00  0.00000000E+00
  0.00000000E+00  0.00000000E+00  0.00000000E+00
  0.00000000E+00  0.00000000E+00  0.00000000E+00
  0.00000000E+00  0.00000000E+00  0.00000000E+00
  0.00000000E+00  0.00000000E+00  0.00000000E+00
  0.00000000E+00  0.00000000E+00  0.00000000E+00
  0.00000000E+00  0.00000000E+00  0.00000000E+00
  0.00000000E+00  0.00000000E+00  0.00000000E+00
  0.00000000E+00  0.00000000E+00  0.00000000E+00
  0.00000000E+00  0.00000000E+00  0.00000000E+00
  0.00000000E+00  0.00000000E+00  0.00000000E+00
  0.00000000E+00  0.00000000E+00  0.00000000E+00
  0.00000000E+00  0.00000000E+00  0.00000000E+00
  0.00000000E+00  0.00000000E+00  0.00000000E+00
  0.00000000E+00  0.00000000E+00  0.00000000E+00
  0.00000000E+00  0.00000000E+00  0.00000000E+00
  0.00000000E+00  0.00000000E+00  0.00000000E+00
  0.00000000E+00  0.00000000E+00  0.00000000E+00
  0.00000000E+00  0.00000000E+00  0.00000000E+00
  0.00000000E+00  0.00000000E+00  0.00000000E+00
  0.00000000E+00  0.00000000E+00  0.00000000E+00
  0.00000000E+00  0.00000000E+00  0.00000000E+00
  0.00000000E+00  0.00000000E+00  0.00000000E+00
  0.00000000E+00  0.00000000E+00  0.00000000E+00
  0.00000000E+00  0.00000000E+00  0.00000000E+00
  0.00000000E+00  0.00000000E+00  0.00000000E+00
  0.00000000E+00  0.00000000E+00  0.00000000E+00
  0.00000000E+00  0.00000000E+00  0.00000000E+00
  0.00000000E+00  0.00000000E+00  0.00000000E+00
  0.00000000E+00  0.00000000E+00  0.00000000E+00
  0.00000000E+00  0.00000000E+00  0.00000000E+00
  0.00000000E+00  0.00000000E+00  0.00000000E+00
  0.00000000E+00  0.00000000E+00  0.00000000E+00
  0.00000000E+00  0.00000000E+00  0.00000000E+00
  0.00000000E+00  0.00000000E+00  0.00000000E+00
  0.00000000E+00  0.00000000E+00  0.00000000E+00
  0.00000000E+00  0.00000000E+00  0.00000000E+00
  0.00000000E+00  0.00000000E+00  0.00000000E+00
  0.00000000E+00  0.00000000E+00  0.00000000E+00
  0.00000000E+00  0.00000000E+00  0.00000000E+00
  0.00000000E+00  0.00000000E+00  0.00000000E+00
  0.00000000E+00  0.00000000E+00  0.00000000E+00
  0.00000000E+00  0.00000000E+00  0.00000000E+00
  0.00000000E+00  0.00000000E+00  0.00000000E+00
  0.00000000E+00  0.00000000E+00  0.00000000E+00
  0.00000000E+00  0.00000000E+00  0.00000000E+00
  0.00000000E+00  0.00000000E+00  0.00000000E+00
  0.00000000E+00  0.00000000E+00  0.00000000E+00
  0.00000000E+00  0.00000000E+00  0.00000000E+00
  0.00000000E+00  0.00000000E+00  0.00000000E+00
  0.00000000E+00  0.00000000E+00  0.00000000E+00
  0.00000000E+00  0.00000000E+00  0.00000000E+00
  0.00000000E+00  0.00000000E+00  0.00000000E+00
  0.00000000E+00  0.00000000E+00  0.00000000E+00
  0.00000000E+00  0.00000000E+00  0.00000000E+00
  0.00000000E+00  0.00000000E+00  0.00000000E+00
  0.00000000E+00  0.00000000E+00  0.00000000E+00
  0.00000000E+00  0.00000000E+00  0.00000000E+00
  0.00000000E+00  0.00000000E+00  0.00000000E+00
  0.00000000E+00  0.00000000E+00  0.00000000E+00
  0.00000000E+00  0.00000000E+00  0.00000000E+00
  0.00000000E+00  0.00000000E+00  0.00000000E+00
  0.00000000E+00  0.00000000E+00  0.00000000E+00
  0.00000000E+00  0.00000000E+00  0.00000000E+00
  0.00000000E+00  0.00000000E+00  0.00000000E+00
  0.00000000E+00  0.00000000E+00  0.00000000E+00
  0.00000000E+00  0.00000000E+00  0.00000000E+00
  0.00000000E+00  0.00000000E+00  0.00000000E+00
  0.00000000E+00  0.00000000E+00  0.00000000E+00
  0.00000000E+00  0.00000000E+00  0.00000000E+00
  0.00000000E+00  0.00000000E+00  0.00000000E+00
  0.00000000E+00  0.00000000E+00  0.00000000E+00
  0.00000000E+00  0.00000000E+00  0.00000000E+00
  0.00000000E+00  0.00000000E+00  0.00000000E+00
  0.00000000E+00  0.00000000E+00  0.00000000E+00
  0.00000000E+00  0.00000000E+00  0.00000000E+00
  0.00000000E+00  0.00000000E+00  0.00000000E+00
  0.00000000E+00  0.00000000E+00  0.00000000E+00
  0.00000000E+00  0.00000000E+00  0.00000000E+00
  0.00000000E+00  0.00000000E+00  0.00000000E+00
  0.00000000E+00  0.00000000E+00  0.00000000E+00
  0.00000000E+00  0.00000000E+00  0.00000000E+00
  0.00000000E+00  0.00000000E+00  0.00000000E+00
  0.00000000E+00  0.00000000E+00  0.00000000E+00
  0.00000000E+00  0.00000000E+00  0.00000000E+00
  0.00000000E+00  0.00000000E+00  0.00000000E+00
  0.00000000E+00  0.00000000E+00  0.00000000E+00
  0.00000000E+00  0.00000000E+00  0.00000000E+00
  0.00000000E+00  0.00000000E+00  0.00000000E+00
  0.00000000E+00  0.00000000E+00  0.00000000E+00
  0.00000000E+00  0.00000000E+00  0.00000000E+00
  0.00000000E+00  0.00000000E+00  0.00000000E+00
  0.00000000E+00  0.00000000E+00  0.00000000E+00
  0.00000000E+00  0.00000000E+00  0.00000000E+00
  0.00000000E+00  0.00000000E+00  0.00000000E+00
  0.00000000E+00  0.00000000E+00  0.00000000E+00
  0.00000000E+00  0.00000000E+00  0.00000000E+00
  0.00000000E+00  0.00000000E+00  0.00000000E+00
  0.00000000E+00  0.00000000E+00  0.00000000E+00
  0.00000000E+00  0.00000000E+00  0.00000000E+00
  0.00000000E+00  0.00000000E+00  0.00000000E+00
  0.00000000E+00  0.00000000E+00  0.00000000E+00
  0.00000000E+00  0.00000000E+00  0.00000000E+00
  0.00000000E+00  0.00000000E+00  0.00000000E+00
  0.00000000E+00  0.00000000E+00  0.00000000E+00
  0.00000000E+00  0.00000000E+00  0.00000000E+00
  0.00000000E+00  0.00000000E+00  0.00000000E+00
  0.00000000E+00  0.00000000E+00  0.00000000E+00
  0.00000000E+00  0.00000000E+00  0.00000000E+00
  0.00000000E+00  0.00000000E+00  0.00000000E+00
  0.00000000E+00  0.00000000E+00  0.00000000E+00
  0.00000000E+00  0.00000000E+00  0.00000000E+00
  0.00000000E+00  0.00000000E+00  0.00000000E+00
  0.00000000E+00  0.00000000E+00  0.00000000E+00
  0.00000000E+00  0.00000000E+00  0.00000000E+00
  0.00000000E+00  0.00000000E+00  0.00000000E+00
  0.00000000E+00  0.00000000E+00  0.00000000E+00
  0.00000000E+00  0.00000000E+00  0.00000000E+00
  0.00000000E+00  0.00000000E+00  0.00000000E+00
  0.00000000E+00  0.00000000E+00  0.00000000E+00
  0.00000000E+00  0.00000000E+00  0.00000000E+00
  0.00000000E+00  0.00000000E+00  0.00000000E+00
  0.00000000E+00  0.00000000E+00  0.00000000E+00
  0.00000000E+00  0.00000000E+00  0.00000000E+00
  0.00000000E+00  0.00000000E+00  0.00000000E+00
  0.00000000E+00  0.00000000E+00  0.00000000E+00
  0.00000000E+00  0.00000000E+00  0.00000000E+00
  0.00000000E+00  0.00000000E+00  0.00000000E+00
  0.00000000E+00  0.00000000E+00  0.00000000E+00
  0.00000000E+00  0.00000000E+00  0.00000000E+00
  0.00000000E+00  0.00000000E+00  0.00000000E+00
  0.00000000E+00  0.00000000E+00  0.00000000E+00
  0.00000000E+00  0.00000000E+00  0.00000000E+00
  0.00000000E+00  0.00000000E+00  0.00000000E+00
  0.00000000E+00  0.00000000E+00  0.00000000E+00
  0.00000000E+00  0.00000000E+00  0.00000000E+00
  0.00000000E+00  0.00000000E+00  0.00000000E+00
  0.00000000E+00  0.00000000E+00  0.00000000E+00
  0.00000000E+00  0.00000000E+00  0.00000000E+00
  0.00000000E+00  0.00000000E+00  0.00000000E+00
  0.00000000E+00  0.00000000E+00  0.00000000E+00
  0.00000000E+00  0.00000000E+00  0.00000000E+00
  0.00000000E+00  0.00000000E+00  0.00000000E+00
  0.00000000E+00  0.00000000E+00  0.00000000E+00
  0.00000000E+00  0.00000000E+00  0.00000000E+00
  0.00000000E+00  0.00000000E+00  0.00000000E+00
  0.00000000E+00  0.00000000E+00  0.00000000E+00
  0.00000000E+00  0.00000000E+00  0.00000000E+00
  0.00000000E+00  0.00000000E+00  0.00000000E+00
  0.00000000E+00  0.00000000E+00  0.00000000E+00
  0.00000000E+00  0.00000000E+00  0.00000000E+00
  0.00000000E+00  0.00000000E+00  0.00000000E+00
  0.00000000E+00  0.00000000E+00  0.00000000E+00
  0.00000000E+00  0.00000000E+00  0.00000000E+00
  0.00000000E+00  0.00000000E+00  0.00000000E+00
  0.00000000E+00  0.00000000E+00  0.00000000E+00
  0.00000000E+00  0.00000000E+00  0.00000000E+00
  0.00000000E+00  0.00000000E+00  0.00000000E+00
  0.00000000E+00  0.00000000E+00  0.00000000E+00
  0.00000000E+00  0.00000000E+00  0.00000000E+00
  0.00000000E+00  0.00000000E+00  0.00000000E+00
  0.00000000E+00  0.00000000E+00  0.00000000E+00
  0.00000000E+00  0.00000000E+00  0.00000000E+00
  0.00000000E+00  0.00000000E+00  0.00000000E+00
  0.00000000E+00  0.00000000E+00  0.00000000E+00
  0.00000000E+00  0.00000000E+00  0.00000000E+00
  0.00000000E+00  0.00000000E+00  0.00000000E+00
  0.00000000E+00  0.00000000E+00  0.00000000E+00
  0.00000000E+00  0.00000000E+00  0.00000000E+00
  0.00000000E+00  0.00000000E+00  0.00000000E+00
  0.00000000E+00  0.00000000E+00  0.00000000E+00
  0.00000000E+00  0.00000000E+00  0.00000000E+00
  0.00000000E+00  0.00000000E+00  0.00000000E+00
  0.00000000E+00  0.00000000E+00  0.00000000E+00
  0.00000000E+00  0.00000000E+00  0.00000000E+00
  0.00000000E+00  0.00000000E+00  0.00000000E+00
  0.00000000E+00  0.00000000E+00  0.00000000E+00
  0.00000000E+00  0.00000000E+00  0.00000000E+00
  0.00000000E+00  0.00000000E+00  0.00000000E+00
  0.00000000E+00  0.00000000E+00  0.00000000E+00
  0.00000000E+00  0.00000000E+00  0.00000000E+00
  0.00000000E+00  0.00000000E+00  0.00000000E+00
  0.00000000E+00  0.00000000E+00  0.00000000E+00
  0.00000000E+00  0.00000000E+00  0.00000000E+00
  0.00000000E+00  0.00000000E+00  0.00000000E+00
  0.00000000E+00  0.00000000E+00  0.00000000E+00
  0.00000000E+00  0.00000000E+00  0.00000000E+00
  0.00000000E+00  0.00000000E+00  0.00000000E+00
  0.00000000E+00  0.00000000E+00  0.00000000E+00
  0.00000000E+00  0.00000000E+00  0.00000000E+00
  0.00000000E+00  0.00000000E+00  0.00000000E+00
  0.00000000E+00  0.00000000E+00  0.00000000E+00
  0.00000000E+00  0.00000000E+00  0.00000000E+00
  0.00000000E+00  0.00000000E+00  0.00000000E+00
  0.00000000E+00  0.00000000E+00  0.00000000E+00
  0.00000000E+00  0.00000000E+00  0.00000000E+00
  0.00000000E+00  0.00000000E+00  0.00000000E+00
